# Solution for model Worker optimizer
# Objective value = 1.2476028466883064e+06
total_army_value[0] 6.3447455314926183e+03
total_army_value[1] 6.0521413990161145e+03
total_army_value[2] 7.8565335492878876e+03
total_army_value[3] 9.1244847900194072e+03
total_army_value[4] 5.1743290015866032e+03
total_army_value[5] 6.3447455314926183e+03
total_army_value[6] 8.1003703263516418e+03
total_army_value[7] 5.5644678448886079e+03
total_army_value[8] 5.5157004894758575e+03
total_army_value[9] 9.5633909887341633e+03
total_army_value[10] 5.4669331340631061e+03
total_army_value[11] 5.9058393327778631e+03
total_army_value[12] 6.9299537964456267e+03
total_army_value[13] 5.1255616461738518e+03
total_army_value[14] 5.2230963569993537e+03
total_army_value[15] 5.1255616461738518e+03
total_army_value[16] 4979.2595799356
total_army_value[17] 6442.28024231812
total_army_value[18] 6.5398149531436211e+03
total_army_value[19] 6.2472108206671182e+03
total_army_value[20] 7.1250232180966286e+03
total_army_value[21] 5.6132352003013584e+03
total_army_value[22] 5662.00255571411
total_army_value[23] 6.0033740436033640e+03
total_army_value[24] 5.9546066881906136e+03
total_army_value[25] 7.4176273505731333e+03
total_army_value[26] 6.2472108206671182e+03
total_army_value[27] 6.7836517302073744e+03
total_army_value[28] 5.8570719773651108e+03
total_army_value[29] 7.8565335492878876e+03
total_army_value[30] 6.0033740436033640e+03
total_army_value[31] 4930.49222452285
total_army_value[32] 8.2954397480026455e+03
total_army_value[33] 6.9299537964456267e+03
total_army_value[34] 5.4181657786503565e+03
total_army_value[35] 6.8324190856201249e+03
total_army_value[36] 7.8565335492878876e+03
total_army_value[37] 6.3447455314926183e+03
total_army_value[38] 5.6132352003013584e+03
total_army_value[39] 5.5157004894758575e+03
total_army_value[40] 8.2954397480026455e+03
total_army_value[41] 7.1250232180966286e+03
total_army_value[42] 6.9299537964456267e+03
total_army_value[43] 5.5644678448886079e+03
total_army_value[44] 7.2225579289221305e+03
total_army_value[45] 5.5644678448886079e+03
total_army_value[46] 6.1009087544288650e+03
total_army_value[47] 5759.53726653961
total_army_value[48] 7.8077661938751389e+03
total_army_value[49] 5662.00255571411
total_army_value[50] 7.6614641276368866e+03
total_army_value[51] 6442.28024231812
total_army_value[52] 5.8570719773651108e+03
total_army_value[53] 5.5157004894758575e+03
total_army_value[54] 5759.53726653961
total_army_value[55] 6.7348843747946239e+03
total_army_value[56] 7.2713252843348810e+03
total_army_value[57] 7954.06826011339
total_army_value[58] 8.7831133021301539e+03
total_army_value[59] 5.4669331340631061e+03
total_army_value[60] 7.0274885072711277e+03
total_army_value[61] 5.8570719773651108e+03
total_army_value[62] 5.4669331340631061e+03
total_army_value[63] 8.0028356155261417e+03
total_army_value[64] 5.0767942907611014e+03
total_army_value[65] 5.0280269353483509e+03
total_army_value[66] 5.1255616461738518e+03
total_army_value[67] 6.1009087544288650e+03
total_army_value[68] 5.5644678448886079e+03
total_army_value[69] 7.3688599951603828e+03
total_army_value[70] 5662.00255571411
total_army_value[71] 5.3206310678248537e+03
total_army_value[72] 5.4181657786503565e+03
total_army_value[73] 6.0033740436033640e+03
total_army_value[74] 5.8570719773651108e+03
total_army_value[75] 5.4669331340631061e+03
total_army_value[76] 6.2472108206671182e+03
total_army_value[77] 6.6373496639691220e+03
total_army_value[78] 6.6373496639691220e+03
total_army_value[79] 6.2959781760798678e+03
total_army_value[80] 5.8570719773651108e+03
total_army_value[81] 5.1255616461738518e+03
total_army_value[82] 5.4669331340631061e+03
total_army_value[83] 5.9058393327778631e+03
total_army_value[84] 6.1009087544288650e+03
total_army_value[85] 5.9546066881906136e+03
total_army_value[86] 8.3442071034153960e+03
total_army_value[87] 5.0767942907611014e+03
total_army_value[88] 7.6126967722241352e+03
total_army_value[89] 5662.00255571411
total_army_value[90] 6.5885823085563716e+03
total_army_value[91] 6.9299537964456267e+03
total_army_value[92] 6.6373496639691220e+03
total_army_value[93] 7.8565335492878876e+03
total_army_value[94] 5.3206310678248537e+03
total_army_value[95] 6.7348843747946239e+03
total_army_value[96] 6.1009087544288650e+03
total_army_value[97] 5.4181657786503565e+03
total_army_value[98] 5.2230963569993537e+03
total_army_value[99] 7.3200926397476314e+03
total_army_value[100] 8.1003703263516418e+03
total_army_value[101] 5.4181657786503565e+03
total_army_value[102] 6.0033740436033640e+03
total_army_value[103] 5.0767942907611014e+03
total_army_value[104] 5.0767942907611014e+03
total_army_value[105] 6.3935128869053688e+03
total_army_value[106] 7.4176273505731333e+03
total_army_value[107] 6.3935128869053688e+03
total_army_value[108] 5.3693984232376051e+03
total_army_value[109] 9368.32156708316
total_army_value[110] 5.4669331340631061e+03
total_army_value[111] 7.0762558626838781e+03
total_army_value[112] 6.0521413990161145e+03
total_army_value[113] 6.1984434652543659e+03
total_army_value[114] 9.1732521454321577e+03
total_army_value[115] 8.8806480129556530e+03
total_army_value[116] 1.0002297187448919e+04
total_army_value[117] 9465.85627790866
total_army_value[118] 6.2472108206671182e+03
total_army_value[119] 6442.28024231812
total_army_value[120] 6.7348843747946239e+03
total_army_value[121] 5710.76991112686
total_army_value[122] 5.5644678448886079e+03
total_army_value[123] 5759.53726653961
total_army_value[124] 6.8811864410328762e+03
total_army_value[125] 7.7589988384623875e+03
total_army_value[126] 6.7348843747946239e+03
total_army_value[127] 5710.76991112686
total_army_value[128] 6.7836517302073744e+03
total_army_value[129] 4930.49222452285
total_army_value[130] 4930.49222452285
total_army_value[131] 6.3447455314926183e+03
total_army_value[132] 5.1743290015866032e+03
total_army_value[133] 5.1743290015866032e+03
total_army_value[134] 6.8811864410328762e+03
total_army_value[135] 6.8811864410328762e+03
total_army_value[136] 5.0767942907611014e+03
total_army_value[137] 5.4669331340631061e+03
total_army_value[138] 5.5157004894758575e+03
total_army_value[139] 5.4669331340631061e+03
total_army_value[140] 6.9299537964456267e+03
total_army_value[141] 9.2220195008449082e+03
total_army_value[142] 5662.00255571411
total_army_value[143] 8.2466723925898950e+03
total_army_value[144] 9.9047624766234185e+03
total_army_value[145] 9465.85627790866
total_army_value[146] 5.3206310678248537e+03
total_army_value[147] 6.1496761098416155e+03
total_army_value[148] 8.7831133021301539e+03
total_army_value[149] 5.2718637124121042e+03
total_army_value[150] 6.5885823085563716e+03
total_army_value[151] 6.9299537964456267e+03
total_army_value[152] 5.4181657786503565e+03
total_army_value[153] 5.4181657786503565e+03
total_army_value[154] 8.4905091696536474e+03
total_army_value[155] 7.4663947059858838e+03
total_army_value[156] 5.8083046219523621e+03
total_army_value[157] 6.9299537964456267e+03
total_army_value[158] 7.1250232180966286e+03
total_army_value[159] 8.0028356155261417e+03
total_army_value[160] 6.6373496639691220e+03
total_army_value[161] 6.2472108206671182e+03
total_army_value[162] 5.1743290015866032e+03
total_army_value[163] 6.7836517302073744e+03
total_army_value[164] 5.2230963569993537e+03
total_army_value[165] 5662.00255571411
total_army_value[166] 7.1250232180966286e+03
total_army_value[167] 7.8565335492878876e+03
total_army_value[168] 8.6855785913046511e+03
total_army_value[169] 5.1255616461738518e+03
total_army_value[170] 5.1743290015866032e+03
total_army_value[171] 6.3935128869053688e+03
total_army_value[172] 6.8324190856201249e+03
total_army_value[173] 6.1496761098416155e+03
total_army_value[174] 5.1255616461738518e+03
total_army_value[175] 5.0280269353483509e+03
total_army_value[176] 5.9546066881906136e+03
total_army_value[177] 5.8083046219523621e+03
total_army_value[178] 7.1737905735093791e+03
total_army_value[179] 5.3693984232376051e+03
total_army_value[180] 8.1003703263516418e+03
total_army_value[181] 5710.76991112686
total_army_value[182] 5.2230963569993537e+03
total_army_value[183] 4930.49222452285
total_army_value[184] 1.0294901319925422e+04
total_army_value[185] 6.5398149531436211e+03
total_army_value[186] 5.3206310678248537e+03
total_army_value[187] 7.5639294168113847e+03
total_army_value[188] 8.1979050371771445e+03
total_army_value[189] 7.0274885072711277e+03
total_army_value[190] 7.2225579289221305e+03
total_army_value[191] 5.0280269353483509e+03
total_army_value[192] 5.9058393327778631e+03
total_workers[0] 171
total_workers[1] 177
total_workers[2] 140
total_workers[3] 114
total_workers[4] 195
total_workers[5] 171
total_workers[6] 135
total_workers[7] 187
total_workers[8] 188
total_workers[9] 105
total_workers[10] 189
total_workers[11] 180
total_workers[12] 159
total_workers[13] 196
total_workers[14] 194
total_workers[15] 196
total_workers[16] 199
total_workers[17] 169
total_workers[18] 167
total_workers[19] 173
total_workers[20] 155
total_workers[21] 186
total_workers[22] 185
total_workers[23] 178
total_workers[24] 179
total_workers[25] 149
total_workers[26] 173
total_workers[27] 162
total_workers[28] 181
total_workers[29] 140
total_workers[30] 178
total_workers[31] 200
total_workers[32] 131
total_workers[33] 159
total_workers[34] 190
total_workers[35] 161
total_workers[36] 140
total_workers[37] 171
total_workers[38] 186
total_workers[39] 188
total_workers[40] 131
total_workers[41] 155
total_workers[42] 159
total_workers[43] 187
total_workers[44] 153
total_workers[45] 187
total_workers[46] 176
total_workers[47] 183
total_workers[48] 141
total_workers[49] 185
total_workers[50] 144
total_workers[51] 169
total_workers[52] 181
total_workers[53] 188
total_workers[54] 183
total_workers[55] 163
total_workers[56] 152
total_workers[57] 138
total_workers[58] 121
total_workers[59] 189
total_workers[60] 157
total_workers[61] 181
total_workers[62] 189
total_workers[63] 137
total_workers[64] 197
total_workers[65] 198
total_workers[66] 196
total_workers[67] 176
total_workers[68] 187
total_workers[69] 150
total_workers[70] 185
total_workers[71] 192
total_workers[72] 190
total_workers[73] 178
total_workers[74] 181
total_workers[75] 189
total_workers[76] 173
total_workers[77] 165
total_workers[78] 165
total_workers[79] 172
total_workers[80] 181
total_workers[81] 196
total_workers[82] 189
total_workers[83] 180
total_workers[84] 176
total_workers[85] 179
total_workers[86] 130
total_workers[87] 197
total_workers[88] 145
total_workers[89] 185
total_workers[90] 166
total_workers[91] 159
total_workers[92] 165
total_workers[93] 140
total_workers[94] 192
total_workers[95] 163
total_workers[96] 176
total_workers[97] 190
total_workers[98] 194
total_workers[99] 151
total_workers[100] 135
total_workers[101] 190
total_workers[102] 178
total_workers[103] 197
total_workers[104] 197
total_workers[105] 170
total_workers[106] 149
total_workers[107] 170
total_workers[108] 191
total_workers[109] 109
total_workers[110] 189
total_workers[111] 156
total_workers[112] 177
total_workers[113] 174
total_workers[114] 113
total_workers[115] 119
total_workers[116] 96
total_workers[117] 107
total_workers[118] 173
total_workers[119] 169
total_workers[120] 163
total_workers[121] 184
total_workers[122] 187
total_workers[123] 183
total_workers[124] 160
total_workers[125] 142
total_workers[126] 163
total_workers[127] 184
total_workers[128] 162
total_workers[129] 200
total_workers[130] 200
total_workers[131] 171
total_workers[132] 195
total_workers[133] 195
total_workers[134] 160
total_workers[135] 160
total_workers[136] 197
total_workers[137] 189
total_workers[138] 188
total_workers[139] 189
total_workers[140] 159
total_workers[141] 112
total_workers[142] 185
total_workers[143] 132
total_workers[144] 98
total_workers[145] 107
total_workers[146] 192
total_workers[147] 175
total_workers[148] 121
total_workers[149] 193
total_workers[150] 166
total_workers[151] 159
total_workers[152] 190
total_workers[153] 190
total_workers[154] 127
total_workers[155] 148
total_workers[156] 182
total_workers[157] 159
total_workers[158] 155
total_workers[159] 137
total_workers[160] 165
total_workers[161] 173
total_workers[162] 195
total_workers[163] 162
total_workers[164] 194
total_workers[165] 185
total_workers[166] 155
total_workers[167] 140
total_workers[168] 123
total_workers[169] 196
total_workers[170] 195
total_workers[171] 170
total_workers[172] 161
total_workers[173] 175
total_workers[174] 196
total_workers[175] 198
total_workers[176] 179
total_workers[177] 182
total_workers[178] 154
total_workers[179] 191
total_workers[180] 135
total_workers[181] 184
total_workers[182] 194
total_workers[183] 200
total_workers[184] 90
total_workers[185] 167
total_workers[186] 192
total_workers[187] 146
total_workers[188] 133
total_workers[189] 157
total_workers[190] 153
total_workers[191] 198
total_workers[192] 180
pipe1.std_scaler1.total_army[0] 29
pipe1.std_scaler1.total_army[1] 23
pipe1.std_scaler1.total_army[2] 60
pipe1.std_scaler1.total_army[3] 86
pipe1.std_scaler1.total_army[4] 5
pipe1.std_scaler1.total_army[5] 29
pipe1.std_scaler1.total_army[6] 65
pipe1.std_scaler1.total_army[7] 13
pipe1.std_scaler1.total_army[8] 12
pipe1.std_scaler1.total_army[9] 95
pipe1.std_scaler1.total_army[10] 11
pipe1.std_scaler1.total_army[11] 20
pipe1.std_scaler1.total_army[12] 41
pipe1.std_scaler1.total_army[13] 4
pipe1.std_scaler1.total_army[14] 6
pipe1.std_scaler1.total_army[15] 4
pipe1.std_scaler1.total_army[16] 1
pipe1.std_scaler1.total_army[17] 31
pipe1.std_scaler1.total_army[18] 33
pipe1.std_scaler1.total_army[19] 27
pipe1.std_scaler1.total_army[20] 45
pipe1.std_scaler1.total_army[21] 14
pipe1.std_scaler1.total_army[22] 15
pipe1.std_scaler1.total_army[23] 22
pipe1.std_scaler1.total_army[24] 21
pipe1.std_scaler1.total_army[25] 51
pipe1.std_scaler1.total_army[26] 27
pipe1.std_scaler1.total_army[27] 38
pipe1.std_scaler1.total_army[28] 19
pipe1.std_scaler1.total_army[29] 60
pipe1.std_scaler1.total_army[30] 22
pipe1.std_scaler1.total_army[31] 0
pipe1.std_scaler1.total_army[32] 69
pipe1.std_scaler1.total_army[33] 41
pipe1.std_scaler1.total_army[34] 10
pipe1.std_scaler1.total_army[35] 39
pipe1.std_scaler1.total_army[36] 60
pipe1.std_scaler1.total_army[37] 29
pipe1.std_scaler1.total_army[38] 14
pipe1.std_scaler1.total_army[39] 12
pipe1.std_scaler1.total_army[40] 69
pipe1.std_scaler1.total_army[41] 45
pipe1.std_scaler1.total_army[42] 41
pipe1.std_scaler1.total_army[43] 13
pipe1.std_scaler1.total_army[44] 47
pipe1.std_scaler1.total_army[45] 13
pipe1.std_scaler1.total_army[46] 24
pipe1.std_scaler1.total_army[47] 17
pipe1.std_scaler1.total_army[48] 59
pipe1.std_scaler1.total_army[49] 15
pipe1.std_scaler1.total_army[50] 56
pipe1.std_scaler1.total_army[51] 31
pipe1.std_scaler1.total_army[52] 19
pipe1.std_scaler1.total_army[53] 12
pipe1.std_scaler1.total_army[54] 17
pipe1.std_scaler1.total_army[55] 37
pipe1.std_scaler1.total_army[56] 48
pipe1.std_scaler1.total_army[57] 62
pipe1.std_scaler1.total_army[58] 79
pipe1.std_scaler1.total_army[59] 11
pipe1.std_scaler1.total_army[60] 43
pipe1.std_scaler1.total_army[61] 19
pipe1.std_scaler1.total_army[62] 11
pipe1.std_scaler1.total_army[63] 63
pipe1.std_scaler1.total_army[64] 3
pipe1.std_scaler1.total_army[65] 2
pipe1.std_scaler1.total_army[66] 4
pipe1.std_scaler1.total_army[67] 24
pipe1.std_scaler1.total_army[68] 13
pipe1.std_scaler1.total_army[69] 50
pipe1.std_scaler1.total_army[70] 15
pipe1.std_scaler1.total_army[71] 8
pipe1.std_scaler1.total_army[72] 10
pipe1.std_scaler1.total_army[73] 22
pipe1.std_scaler1.total_army[74] 19
pipe1.std_scaler1.total_army[75] 11
pipe1.std_scaler1.total_army[76] 27
pipe1.std_scaler1.total_army[77] 35
pipe1.std_scaler1.total_army[78] 35
pipe1.std_scaler1.total_army[79] 28
pipe1.std_scaler1.total_army[80] 19
pipe1.std_scaler1.total_army[81] 4
pipe1.std_scaler1.total_army[82] 11
pipe1.std_scaler1.total_army[83] 20
pipe1.std_scaler1.total_army[84] 24
pipe1.std_scaler1.total_army[85] 21
pipe1.std_scaler1.total_army[86] 70
pipe1.std_scaler1.total_army[87] 3
pipe1.std_scaler1.total_army[88] 55
pipe1.std_scaler1.total_army[89] 15
pipe1.std_scaler1.total_army[90] 34
pipe1.std_scaler1.total_army[91] 41
pipe1.std_scaler1.total_army[92] 35
pipe1.std_scaler1.total_army[93] 60
pipe1.std_scaler1.total_army[94] 8
pipe1.std_scaler1.total_army[95] 37
pipe1.std_scaler1.total_army[96] 24
pipe1.std_scaler1.total_army[97] 10
pipe1.std_scaler1.total_army[98] 6
pipe1.std_scaler1.total_army[99] 49
pipe1.std_scaler1.total_army[100] 65
pipe1.std_scaler1.total_army[101] 10
pipe1.std_scaler1.total_army[102] 22
pipe1.std_scaler1.total_army[103] 3
pipe1.std_scaler1.total_army[104] 3
pipe1.std_scaler1.total_army[105] 30
pipe1.std_scaler1.total_army[106] 51
pipe1.std_scaler1.total_army[107] 30
pipe1.std_scaler1.total_army[108] 9
pipe1.std_scaler1.total_army[109] 91
pipe1.std_scaler1.total_army[110] 11
pipe1.std_scaler1.total_army[111] 44
pipe1.std_scaler1.total_army[112] 23
pipe1.std_scaler1.total_army[113] 26
pipe1.std_scaler1.total_army[114] 87
pipe1.std_scaler1.total_army[115] 81
pipe1.std_scaler1.total_army[116] 104
pipe1.std_scaler1.total_army[117] 93
pipe1.std_scaler1.total_army[118] 27
pipe1.std_scaler1.total_army[119] 31
pipe1.std_scaler1.total_army[120] 37
pipe1.std_scaler1.total_army[121] 16
pipe1.std_scaler1.total_army[122] 13
pipe1.std_scaler1.total_army[123] 17
pipe1.std_scaler1.total_army[124] 40
pipe1.std_scaler1.total_army[125] 58
pipe1.std_scaler1.total_army[126] 37
pipe1.std_scaler1.total_army[127] 16
pipe1.std_scaler1.total_army[128] 38
pipe1.std_scaler1.total_army[129] 0
pipe1.std_scaler1.total_army[130] 0
pipe1.std_scaler1.total_army[131] 29
pipe1.std_scaler1.total_army[132] 5
pipe1.std_scaler1.total_army[133] 5
pipe1.std_scaler1.total_army[134] 40
pipe1.std_scaler1.total_army[135] 40
pipe1.std_scaler1.total_army[136] 3
pipe1.std_scaler1.total_army[137] 11
pipe1.std_scaler1.total_army[138] 12
pipe1.std_scaler1.total_army[139] 11
pipe1.std_scaler1.total_army[140] 41
pipe1.std_scaler1.total_army[141] 88
pipe1.std_scaler1.total_army[142] 15
pipe1.std_scaler1.total_army[143] 68
pipe1.std_scaler1.total_army[144] 102
pipe1.std_scaler1.total_army[145] 93
pipe1.std_scaler1.total_army[146] 8
pipe1.std_scaler1.total_army[147] 25
pipe1.std_scaler1.total_army[148] 79
pipe1.std_scaler1.total_army[149] 7
pipe1.std_scaler1.total_army[150] 34
pipe1.std_scaler1.total_army[151] 41
pipe1.std_scaler1.total_army[152] 10
pipe1.std_scaler1.total_army[153] 10
pipe1.std_scaler1.total_army[154] 73
pipe1.std_scaler1.total_army[155] 52
pipe1.std_scaler1.total_army[156] 18
pipe1.std_scaler1.total_army[157] 41
pipe1.std_scaler1.total_army[158] 45
pipe1.std_scaler1.total_army[159] 63
pipe1.std_scaler1.total_army[160] 35
pipe1.std_scaler1.total_army[161] 27
pipe1.std_scaler1.total_army[162] 5
pipe1.std_scaler1.total_army[163] 38
pipe1.std_scaler1.total_army[164] 6
pipe1.std_scaler1.total_army[165] 15
pipe1.std_scaler1.total_army[166] 45
pipe1.std_scaler1.total_army[167] 60
pipe1.std_scaler1.total_army[168] 77
pipe1.std_scaler1.total_army[169] 4
pipe1.std_scaler1.total_army[170] 5
pipe1.std_scaler1.total_army[171] 30
pipe1.std_scaler1.total_army[172] 39
pipe1.std_scaler1.total_army[173] 25
pipe1.std_scaler1.total_army[174] 4
pipe1.std_scaler1.total_army[175] 2
pipe1.std_scaler1.total_army[176] 21
pipe1.std_scaler1.total_army[177] 18
pipe1.std_scaler1.total_army[178] 46
pipe1.std_scaler1.total_army[179] 9
pipe1.std_scaler1.total_army[180] 65
pipe1.std_scaler1.total_army[181] 16
pipe1.std_scaler1.total_army[182] 6
pipe1.std_scaler1.total_army[183] 0
pipe1.std_scaler1.total_army[184] 110
pipe1.std_scaler1.total_army[185] 33
pipe1.std_scaler1.total_army[186] 8
pipe1.std_scaler1.total_army[187] 54
pipe1.std_scaler1.total_army[188] 67
pipe1.std_scaler1.total_army[189] 43
pipe1.std_scaler1.total_army[190] 47
pipe1.std_scaler1.total_army[191] 2
pipe1.std_scaler1.total_army[192] 20
pipe1.std_scaler1.out[0,0] 7.1314482426339865e+00
pipe1.std_scaler1.out[0,1] -1.9731874387978566e-02
pipe1.std_scaler1.out[1,0] 7.4777102119792858e+00
pipe1.std_scaler1.out[1,1] -2.7026302790760315e-01
pipe1.std_scaler1.out[2,0] 5.3424280676832705e+00
pipe1.std_scaler1.out[2,1] 1.2746790854634151e+00
pipe1.std_scaler1.out[3,0] 3.84195953385364
pipe1.std_scaler1.out[3,1] 2.3603140840484551e+00
pipe1.std_scaler1.out[4,0] 8.5164961200151854e+00
pipe1.std_scaler1.out[4,1] -1.0218564884664769e+00
pipe1.std_scaler1.out[5,0] 7.1314482426339865e+00
pipe1.std_scaler1.out[5,1] -1.9731874387978566e-02
pipe1.std_scaler1.out[6,0] 5.0538764265621889e+00
pipe1.std_scaler1.out[6,1] 1.4834550467297691e+00
pipe1.std_scaler1.out[7,0] 8.0548134942214524e+00
pipe1.std_scaler1.out[7,1] -6.8781495044031082e-01
pipe1.std_scaler1.out[8,0] 8.1125238224456684e+00
pipe1.std_scaler1.out[8,1] -7.2957014269358156e-01
pipe1.std_scaler1.out[9,0] 3.3225665798356903e+00
pipe1.std_scaler1.out[9,1] 2.7361108143278923e+00
pipe1.std_scaler1.out[10,0] 8.1702341506698843e+00
pipe1.std_scaler1.out[10,1] -7.7132533494685240e-01
pipe1.std_scaler1.out[11,0] 7.6508411966519354e+00
pipe1.std_scaler1.out[11,1] -3.9552860466741546e-01
pipe1.std_scaler1.out[12,0] 6.4389243039433861e+00
pipe1.std_scaler1.out[12,1] 4.8133043265127062e-01
pipe1.std_scaler1.out[13,0] 8.5742064482394014e+00
pipe1.std_scaler1.out[13,1] -1.0636116807197478e+00
pipe1.std_scaler1.out[14,0] 8.4587857917909677e+00
pipe1.std_scaler1.out[14,1] -9.8010129621320619e-01
pipe1.std_scaler1.out[15,0] 8.5742064482394014e+00
pipe1.std_scaler1.out[15,1] -1.0636116807197478e+00
pipe1.std_scaler1.out[16,0] 8.7473374329120510e+00
pipe1.std_scaler1.out[16,1] -1.18887725747956
pipe1.std_scaler1.out[17,0] 7.0160275861855528e+00
pipe1.std_scaler1.out[17,1] 6.3778510118562962e-02
pipe1.std_scaler1.out[18,0] 6.9006069297371191e+00
pipe1.std_scaler1.out[18,1] 1.4728889462510450e-01
pipe1.std_scaler1.out[19,0] 7.24686889908242
pipe1.std_scaler1.out[19,1] -1.0324225889452010e-01
pipe1.std_scaler1.out[20,0] 6.2080829910465205e+00
pipe1.std_scaler1.out[20,1] 6.4835120166435367e-01
pipe1.std_scaler1.out[21,0] 7.9971031659972347e+00
pipe1.std_scaler1.out[21,1] -6.4605975818704009e-01
pipe1.std_scaler1.out[22,0] 7.9393928377730187e+00
pipe1.std_scaler1.out[22,1] -6.0430456593376924e-01
pipe1.std_scaler1.out[23,0] 7.5354205402035017e+00
pipe1.std_scaler1.out[23,1] -3.1201822016087394e-01
pipe1.std_scaler1.out[24,0] 7.5931308684277194e+00
pipe1.std_scaler1.out[24,1] -3.5377341241414467e-01
pipe1.std_scaler1.out[25,0] 5.8618210217012212e+00
pipe1.std_scaler1.out[25,1] 8.9888235518397830e-01
pipe1.std_scaler1.out[26,0] 7.24686889908242
pipe1.std_scaler1.out[26,1] -1.0324225889452010e-01
pipe1.std_scaler1.out[27,0] 6.6120552886160358e+00
pipe1.std_scaler1.out[27,1] 3.5606485589145831e-01
pipe1.std_scaler1.out[28,0] 7.7085515248761514e+00
pipe1.std_scaler1.out[28,1] -4.3728379692068625e-01
pipe1.std_scaler1.out[29,0] 5.3424280676832705e+00
pipe1.std_scaler1.out[29,1] 1.2746790854634151e+00
pipe1.std_scaler1.out[30,0] 7.5354205402035017e+00
pipe1.std_scaler1.out[30,1] -3.1201822016087394e-01
pipe1.std_scaler1.out[31,0] 8.8050477611362670e+00
pipe1.std_scaler1.out[31,1] -1.2306324497328307e+00
pipe1.std_scaler1.out[32,0] 4.8230351136653216e+00
pipe1.std_scaler1.out[32,1] 1.6504758157428523e+00
pipe1.std_scaler1.out[33,0] 6.4389243039433861e+00
pipe1.std_scaler1.out[33,1] 4.8133043265127062e-01
pipe1.std_scaler1.out[34,0] 8.2279444788941021e+00
pipe1.std_scaler1.out[34,1] -8.1308052720012314e-01
pipe1.std_scaler1.out[35,0] 6.55434496039182
pipe1.std_scaler1.out[35,1] 3.9782004814472910e-01
pipe1.std_scaler1.out[36,0] 5.3424280676832705e+00
pipe1.std_scaler1.out[36,1] 1.2746790854634151e+00
pipe1.std_scaler1.out[37,0] 7.1314482426339865e+00
pipe1.std_scaler1.out[37,1] -1.9731874387978566e-02
pipe1.std_scaler1.out[38,0] 7.9971031659972347e+00
pipe1.std_scaler1.out[38,1] -6.4605975818704009e-01
pipe1.std_scaler1.out[39,0] 8.1125238224456684e+00
pipe1.std_scaler1.out[39,1] -7.2957014269358156e-01
pipe1.std_scaler1.out[40,0] 4.8230351136653216e+00
pipe1.std_scaler1.out[40,1] 1.6504758157428523e+00
pipe1.std_scaler1.out[41,0] 6.2080829910465205e+00
pipe1.std_scaler1.out[41,1] 6.4835120166435367e-01
pipe1.std_scaler1.out[42,0] 6.4389243039433861e+00
pipe1.std_scaler1.out[42,1] 4.8133043265127062e-01
pipe1.std_scaler1.out[43,0] 8.0548134942214524e+00
pipe1.std_scaler1.out[43,1] -6.8781495044031082e-01
pipe1.std_scaler1.out[44,0] 6.0926623345980868e+00
pipe1.std_scaler1.out[44,1] 7.3186158617089525e-01
pipe1.std_scaler1.out[45,0] 8.0548134942214524e+00
pipe1.std_scaler1.out[45,1] -6.8781495044031082e-01
pipe1.std_scaler1.out[46,0] 7.41999988375507
pipe1.std_scaler1.out[46,1] -2.2850783565433239e-01
pipe1.std_scaler1.out[47,0] 7.8239721813245851e+00
pipe1.std_scaler1.out[47,1] -5.2079418142722778e-01
pipe1.std_scaler1.out[48,0] 5.4001383959074882e+00
pipe1.std_scaler1.out[48,1] 1.2329238932101445e+00
pipe1.std_scaler1.out[49,0] 7.9393928377730187e+00
pipe1.std_scaler1.out[49,1] -6.0430456593376924e-01
pipe1.std_scaler1.out[50,0] 5.5732693805801379e+00
pipe1.std_scaler1.out[50,1] 1.1076583164503322e+00
pipe1.std_scaler1.out[51,0] 7.0160275861855528e+00
pipe1.std_scaler1.out[51,1] 6.3778510118562962e-02
pipe1.std_scaler1.out[52,0] 7.7085515248761514e+00
pipe1.std_scaler1.out[52,1] -4.3728379692068625e-01
pipe1.std_scaler1.out[53,0] 8.1125238224456684e+00
pipe1.std_scaler1.out[53,1] -7.2957014269358156e-01
pipe1.std_scaler1.out[54,0] 7.8239721813245851e+00
pipe1.std_scaler1.out[54,1] -5.2079418142722778e-01
pipe1.std_scaler1.out[55,0] 6.6697656168402535e+00
pipe1.std_scaler1.out[55,1] 3.1430966363818758e-01
pipe1.std_scaler1.out[56,0] 6.0349520063738709e+00
pipe1.std_scaler1.out[56,1] 0.773616778424166
pipe1.std_scaler1.out[57,0] 5.2270074112348386e+00
pipe1.std_scaler1.out[57,1] 1.3581894699699568e+00
pipe1.std_scaler1.out[58,0] 4.2459318314231567e+00
pipe1.std_scaler1.out[58,1] 2.06802773827556
pipe1.std_scaler1.out[59,0] 8.1702341506698843e+00
pipe1.std_scaler1.out[59,1] -7.7132533494685240e-01
pipe1.std_scaler1.out[60,0] 6.3235036474949542e+00
pipe1.std_scaler1.out[60,1] 5.6484081715781220e-01
pipe1.std_scaler1.out[61,0] 7.7085515248761514e+00
pipe1.std_scaler1.out[61,1] -4.3728379692068625e-01
pipe1.std_scaler1.out[62,0] 8.1702341506698843e+00
pipe1.std_scaler1.out[62,1] -7.7132533494685240e-01
pipe1.std_scaler1.out[63,0] 5.1692970830106226e+00
pipe1.std_scaler1.out[63,1] 1.3999446622232277e+00
pipe1.std_scaler1.out[64,0] 8.6319167764636173e+00
pipe1.std_scaler1.out[64,1] -1.1053668729730184e+00
pipe1.std_scaler1.out[65,0] 8.6896271046878351e+00
pipe1.std_scaler1.out[65,1] -1.1471220652262892e+00
pipe1.std_scaler1.out[66,0] 8.5742064482394014e+00
pipe1.std_scaler1.out[66,1] -1.0636116807197478e+00
pipe1.std_scaler1.out[67,0] 7.41999988375507
pipe1.std_scaler1.out[67,1] -2.2850783565433239e-01
pipe1.std_scaler1.out[68,0] 8.0548134942214524e+00
pipe1.std_scaler1.out[68,1] -6.8781495044031082e-01
pipe1.std_scaler1.out[69,0] 5.9195313499254372e+00
pipe1.std_scaler1.out[69,1] 8.5712716293070756e-01
pipe1.std_scaler1.out[70,0] 7.9393928377730187e+00
pipe1.std_scaler1.out[70,1] -6.0430456593376924e-01
pipe1.std_scaler1.out[71,0] 8.3433651353425340e+00
pipe1.std_scaler1.out[71,1] -8.9659091170666461e-01
pipe1.std_scaler1.out[72,0] 8.2279444788941021e+00
pipe1.std_scaler1.out[72,1] -8.1308052720012314e-01
pipe1.std_scaler1.out[73,0] 7.5354205402035017e+00
pipe1.std_scaler1.out[73,1] -3.1201822016087394e-01
pipe1.std_scaler1.out[74,0] 7.7085515248761514e+00
pipe1.std_scaler1.out[74,1] -4.3728379692068625e-01
pipe1.std_scaler1.out[75,0] 8.1702341506698843e+00
pipe1.std_scaler1.out[75,1] -7.7132533494685240e-01
pipe1.std_scaler1.out[76,0] 7.24686889908242
pipe1.std_scaler1.out[76,1] -1.0324225889452010e-01
pipe1.std_scaler1.out[77,0] 6.7851862732886872e+00
pipe1.std_scaler1.out[77,1] 2.3079927913164602e-01
pipe1.std_scaler1.out[78,0] 6.7851862732886872e+00
pipe1.std_scaler1.out[78,1] 2.3079927913164602e-01
pipe1.std_scaler1.out[79,0] 7.1891585708582024e+00
pipe1.std_scaler1.out[79,1] -6.1487066641249331e-02
pipe1.std_scaler1.out[80,0] 7.7085515248761514e+00
pipe1.std_scaler1.out[80,1] -4.3728379692068625e-01
pipe1.std_scaler1.out[81,0] 8.5742064482394014e+00
pipe1.std_scaler1.out[81,1] -1.0636116807197478e+00
pipe1.std_scaler1.out[82,0] 8.1702341506698843e+00
pipe1.std_scaler1.out[82,1] -7.7132533494685240e-01
pipe1.std_scaler1.out[83,0] 7.6508411966519354e+00
pipe1.std_scaler1.out[83,1] -3.9552860466741546e-01
pipe1.std_scaler1.out[84,0] 7.41999988375507
pipe1.std_scaler1.out[84,1] -2.2850783565433239e-01
pipe1.std_scaler1.out[85,0] 7.5931308684277194e+00
pipe1.std_scaler1.out[85,1] -3.5377341241414467e-01
pipe1.std_scaler1.out[86,0] 4.7653247854411056e+00
pipe1.std_scaler1.out[86,1] 1.6922310079961229e+00
pipe1.std_scaler1.out[87,0] 8.6319167764636173e+00
pipe1.std_scaler1.out[87,1] -1.1053668729730184e+00
pipe1.std_scaler1.out[88,0] 5.6309797088043538e+00
pipe1.std_scaler1.out[88,1] 1.0659031241970613e+00
pipe1.std_scaler1.out[89,0] 7.9393928377730187e+00
pipe1.std_scaler1.out[89,1] -6.0430456593376924e-01
pipe1.std_scaler1.out[90,0] 6.8428966015129031e+00
pipe1.std_scaler1.out[90,1] 1.8904408687837526e-01
pipe1.std_scaler1.out[91,0] 6.4389243039433861e+00
pipe1.std_scaler1.out[91,1] 4.8133043265127062e-01
pipe1.std_scaler1.out[92,0] 6.7851862732886872e+00
pipe1.std_scaler1.out[92,1] 2.3079927913164602e-01
pipe1.std_scaler1.out[93,0] 5.3424280676832705e+00
pipe1.std_scaler1.out[93,1] 1.2746790854634151e+00
pipe1.std_scaler1.out[94,0] 8.3433651353425340e+00
pipe1.std_scaler1.out[94,1] -8.9659091170666461e-01
pipe1.std_scaler1.out[95,0] 6.6697656168402535e+00
pipe1.std_scaler1.out[95,1] 3.1430966363818758e-01
pipe1.std_scaler1.out[96,0] 7.41999988375507
pipe1.std_scaler1.out[96,1] -2.2850783565433239e-01
pipe1.std_scaler1.out[97,0] 8.2279444788941021e+00
pipe1.std_scaler1.out[97,1] -8.1308052720012314e-01
pipe1.std_scaler1.out[98,0] 8.4587857917909677e+00
pipe1.std_scaler1.out[98,1] -9.8010129621320619e-01
pipe1.std_scaler1.out[99,0] 5.9772416781496531e+00
pipe1.std_scaler1.out[99,1] 8.1537197067743672e-01
pipe1.std_scaler1.out[100,0] 5.0538764265621889e+00
pipe1.std_scaler1.out[100,1] 1.4834550467297691e+00
pipe1.std_scaler1.out[101,0] 8.2279444788941021e+00
pipe1.std_scaler1.out[101,1] -8.1308052720012314e-01
pipe1.std_scaler1.out[102,0] 7.5354205402035017e+00
pipe1.std_scaler1.out[102,1] -3.1201822016087394e-01
pipe1.std_scaler1.out[103,0] 8.6319167764636173e+00
pipe1.std_scaler1.out[103,1] -1.1053668729730184e+00
pipe1.std_scaler1.out[104,0] 8.6319167764636173e+00
pipe1.std_scaler1.out[104,1] -1.1053668729730184e+00
pipe1.std_scaler1.out[105,0] 7.0737379144097687e+00
pipe1.std_scaler1.out[105,1] 0.0220233178652922
pipe1.std_scaler1.out[106,0] 5.8618210217012212e+00
pipe1.std_scaler1.out[106,1] 8.9888235518397830e-01
pipe1.std_scaler1.out[107,0] 7.0737379144097687e+00
pipe1.std_scaler1.out[107,1] 0.0220233178652922
pipe1.std_scaler1.out[108,0] 8.2856548071183180e+00
pipe1.std_scaler1.out[108,1] -8.5483571945339387e-01
pipe1.std_scaler1.out[109,0] 3.5534078927325567e+00
pipe1.std_scaler1.out[109,1] 2.5690900453148089e+00
pipe1.std_scaler1.out[110,0] 8.1702341506698843e+00
pipe1.std_scaler1.out[110,1] -7.7132533494685240e-01
pipe1.std_scaler1.out[111,0] 6.2657933192707365e+00
pipe1.std_scaler1.out[111,1] 6.0659600941108294e-01
pipe1.std_scaler1.out[112,0] 7.4777102119792858e+00
pipe1.std_scaler1.out[112,1] -2.7026302790760315e-01
pipe1.std_scaler1.out[113,0] 7.3045792273066361e+00
pipe1.std_scaler1.out[113,1] -1.4499745114779086e-01
pipe1.std_scaler1.out[114,0] 3.7842492056294232e+00
pipe1.std_scaler1.out[114,1] 2.4020692763017260e+00
pipe1.std_scaler1.out[115,0] 4.1305111749747230e+00
pipe1.std_scaler1.out[115,1] 2.1515381227821013e+00
pipe1.std_scaler1.out[116,0] 2.8031736258177404e+00
pipe1.std_scaler1.out[116,1] 3.1119075446073290e+00
pipe1.std_scaler1.out[117,0] 3.4379872362841239e+00
pipe1.std_scaler1.out[117,1] 2.6526004298213506e+00
pipe1.std_scaler1.out[118,0] 7.24686889908242
pipe1.std_scaler1.out[118,1] -1.0324225889452010e-01
pipe1.std_scaler1.out[119,0] 7.0160275861855528e+00
pipe1.std_scaler1.out[119,1] 6.3778510118562962e-02
pipe1.std_scaler1.out[120,0] 6.6697656168402535e+00
pipe1.std_scaler1.out[120,1] 3.1430966363818758e-01
pipe1.std_scaler1.out[121,0] 7.8816825095488028e+00
pipe1.std_scaler1.out[121,1] -5.6254937368049851e-01
pipe1.std_scaler1.out[122,0] 8.0548134942214524e+00
pipe1.std_scaler1.out[122,1] -6.8781495044031082e-01
pipe1.std_scaler1.out[123,0] 7.8239721813245851e+00
pipe1.std_scaler1.out[123,1] -5.2079418142722778e-01
pipe1.std_scaler1.out[124,0] 6.4966346321676038e+00
pipe1.std_scaler1.out[124,1] 4.3957524039799983e-01
pipe1.std_scaler1.out[125,0] 5.4578487241317042e+00
pipe1.std_scaler1.out[125,1] 1.1911687009568737e+00
pipe1.std_scaler1.out[126,0] 6.6697656168402535e+00
pipe1.std_scaler1.out[126,1] 3.1430966363818758e-01
pipe1.std_scaler1.out[127,0] 7.8816825095488028e+00
pipe1.std_scaler1.out[127,1] -5.6254937368049851e-01
pipe1.std_scaler1.out[128,0] 6.6120552886160358e+00
pipe1.std_scaler1.out[128,1] 3.5606485589145831e-01
pipe1.std_scaler1.out[129,0] 8.8050477611362670e+00
pipe1.std_scaler1.out[129,1] -1.2306324497328307e+00
pipe1.std_scaler1.out[130,0] 8.8050477611362670e+00
pipe1.std_scaler1.out[130,1] -1.2306324497328307e+00
pipe1.std_scaler1.out[131,0] 7.1314482426339865e+00
pipe1.std_scaler1.out[131,1] -1.9731874387978566e-02
pipe1.std_scaler1.out[132,0] 8.5164961200151854e+00
pipe1.std_scaler1.out[132,1] -1.0218564884664769e+00
pipe1.std_scaler1.out[133,0] 8.5164961200151854e+00
pipe1.std_scaler1.out[133,1] -1.0218564884664769e+00
pipe1.std_scaler1.out[134,0] 6.4966346321676038e+00
pipe1.std_scaler1.out[134,1] 4.3957524039799983e-01
pipe1.std_scaler1.out[135,0] 6.4966346321676038e+00
pipe1.std_scaler1.out[135,1] 4.3957524039799983e-01
pipe1.std_scaler1.out[136,0] 8.6319167764636173e+00
pipe1.std_scaler1.out[136,1] -1.1053668729730184e+00
pipe1.std_scaler1.out[137,0] 8.1702341506698843e+00
pipe1.std_scaler1.out[137,1] -7.7132533494685240e-01
pipe1.std_scaler1.out[138,0] 8.1125238224456684e+00
pipe1.std_scaler1.out[138,1] -7.2957014269358156e-01
pipe1.std_scaler1.out[139,0] 8.1702341506698843e+00
pipe1.std_scaler1.out[139,1] -7.7132533494685240e-01
pipe1.std_scaler1.out[140,0] 6.4389243039433861e+00
pipe1.std_scaler1.out[140,1] 4.8133043265127062e-01
pipe1.std_scaler1.out[141,0] 3.7265388774052064e+00
pipe1.std_scaler1.out[141,1] 2.4438244685549968e+00
pipe1.std_scaler1.out[142,0] 7.9393928377730187e+00
pipe1.std_scaler1.out[142,1] -6.0430456593376924e-01
pipe1.std_scaler1.out[143,0] 4.8807454418895393e+00
pipe1.std_scaler1.out[143,1] 1.6087206234895814e+00
pipe1.std_scaler1.out[144,0] 2.9185942822661741e+00
pipe1.std_scaler1.out[144,1] 3.0283971601007873e+00
pipe1.std_scaler1.out[145,0] 3.4379872362841239e+00
pipe1.std_scaler1.out[145,1] 2.6526004298213506e+00
pipe1.std_scaler1.out[146,0] 8.3433651353425340e+00
pipe1.std_scaler1.out[146,1] -8.9659091170666461e-01
pipe1.std_scaler1.out[147,0] 7.3622895555308521e+00
pipe1.std_scaler1.out[147,1] -1.8675264340106162e-01
pipe1.std_scaler1.out[148,0] 4.2459318314231567e+00
pipe1.std_scaler1.out[148,1] 2.06802773827556
pipe1.std_scaler1.out[149,0] 8.4010754635667517e+00
pipe1.std_scaler1.out[149,1] -9.3834610395993545e-01
pipe1.std_scaler1.out[150,0] 6.8428966015129031e+00
pipe1.std_scaler1.out[150,1] 1.8904408687837526e-01
pipe1.std_scaler1.out[151,0] 6.4389243039433861e+00
pipe1.std_scaler1.out[151,1] 4.8133043265127062e-01
pipe1.std_scaler1.out[152,0] 8.2279444788941021e+00
pipe1.std_scaler1.out[152,1] -8.1308052720012314e-01
pipe1.std_scaler1.out[153,0] 8.2279444788941021e+00
pipe1.std_scaler1.out[153,1] -8.1308052720012314e-01
pipe1.std_scaler1.out[154,0] 4.5921938007684560e+00
pipe1.std_scaler1.out[154,1] 1.8174965847559352e+00
pipe1.std_scaler1.out[155,0] 5.8041106934770035e+00
pipe1.std_scaler1.out[155,1] 0.940637547437249
pipe1.std_scaler1.out[156,0] 7.7662618531003691e+00
pipe1.std_scaler1.out[156,1] -0.479038989173957
pipe1.std_scaler1.out[157,0] 6.4389243039433861e+00
pipe1.std_scaler1.out[157,1] 4.8133043265127062e-01
pipe1.std_scaler1.out[158,0] 6.2080829910465205e+00
pipe1.std_scaler1.out[158,1] 6.4835120166435367e-01
pipe1.std_scaler1.out[159,0] 5.1692970830106226e+00
pipe1.std_scaler1.out[159,1] 1.3999446622232277e+00
pipe1.std_scaler1.out[160,0] 6.7851862732886872e+00
pipe1.std_scaler1.out[160,1] 2.3079927913164602e-01
pipe1.std_scaler1.out[161,0] 7.24686889908242
pipe1.std_scaler1.out[161,1] -1.0324225889452010e-01
pipe1.std_scaler1.out[162,0] 8.5164961200151854e+00
pipe1.std_scaler1.out[162,1] -1.0218564884664769e+00
pipe1.std_scaler1.out[163,0] 6.6120552886160358e+00
pipe1.std_scaler1.out[163,1] 3.5606485589145831e-01
pipe1.std_scaler1.out[164,0] 8.4587857917909677e+00
pipe1.std_scaler1.out[164,1] -9.8010129621320619e-01
pipe1.std_scaler1.out[165,0] 7.9393928377730187e+00
pipe1.std_scaler1.out[165,1] -6.0430456593376924e-01
pipe1.std_scaler1.out[166,0] 6.2080829910465205e+00
pipe1.std_scaler1.out[166,1] 6.4835120166435367e-01
pipe1.std_scaler1.out[167,0] 5.3424280676832705e+00
pipe1.std_scaler1.out[167,1] 1.2746790854634151e+00
pipe1.std_scaler1.out[168,0] 4.3613524878715886e+00
pipe1.std_scaler1.out[168,1] 1.9845173537690184e+00
pipe1.std_scaler1.out[169,0] 8.5742064482394014e+00
pipe1.std_scaler1.out[169,1] -1.0636116807197478e+00
pipe1.std_scaler1.out[170,0] 8.5164961200151854e+00
pipe1.std_scaler1.out[170,1] -1.0218564884664769e+00
pipe1.std_scaler1.out[171,0] 7.0737379144097687e+00
pipe1.std_scaler1.out[171,1] 0.0220233178652922
pipe1.std_scaler1.out[172,0] 6.55434496039182
pipe1.std_scaler1.out[172,1] 3.9782004814472910e-01
pipe1.std_scaler1.out[173,0] 7.3622895555308521e+00
pipe1.std_scaler1.out[173,1] -1.8675264340106162e-01
pipe1.std_scaler1.out[174,0] 8.5742064482394014e+00
pipe1.std_scaler1.out[174,1] -1.0636116807197478e+00
pipe1.std_scaler1.out[175,0] 8.6896271046878351e+00
pipe1.std_scaler1.out[175,1] -1.1471220652262892e+00
pipe1.std_scaler1.out[176,0] 7.5931308684277194e+00
pipe1.std_scaler1.out[176,1] -3.5377341241414467e-01
pipe1.std_scaler1.out[177,0] 7.7662618531003691e+00
pipe1.std_scaler1.out[177,1] -0.479038989173957
pipe1.std_scaler1.out[178,0] 6.1503726628223045e+00
pipe1.std_scaler1.out[178,1] 6.9010639391762441e-01
pipe1.std_scaler1.out[179,0] 8.2856548071183180e+00
pipe1.std_scaler1.out[179,1] -8.5483571945339387e-01
pipe1.std_scaler1.out[180,0] 5.0538764265621889e+00
pipe1.std_scaler1.out[180,1] 1.4834550467297691e+00
pipe1.std_scaler1.out[181,0] 7.8816825095488028e+00
pipe1.std_scaler1.out[181,1] -5.6254937368049851e-01
pipe1.std_scaler1.out[182,0] 8.4587857917909677e+00
pipe1.std_scaler1.out[182,1] -9.8010129621320619e-01
pipe1.std_scaler1.out[183,0] 8.8050477611362670e+00
pipe1.std_scaler1.out[183,1] -1.2306324497328307e+00
pipe1.std_scaler1.out[184,0] 2.4569116564724411e+00
pipe1.std_scaler1.out[184,1] 3.3624386981269536e+00
pipe1.std_scaler1.out[185,0] 6.9006069297371191e+00
pipe1.std_scaler1.out[185,1] 1.4728889462510450e-01
pipe1.std_scaler1.out[186,0] 8.3433651353425340e+00
pipe1.std_scaler1.out[186,1] -8.9659091170666461e-01
pipe1.std_scaler1.out[187,0] 5.6886900370285716e+00
pipe1.std_scaler1.out[187,1] 1.0241479319437905e+00
pipe1.std_scaler1.out[188,0] 4.9384557701137552e+00
pipe1.std_scaler1.out[188,1] 1.5669654312363106e+00
pipe1.std_scaler1.out[189,0] 6.3235036474949542e+00
pipe1.std_scaler1.out[189,1] 5.6484081715781220e-01
pipe1.std_scaler1.out[190,0] 6.0926623345980868e+00
pipe1.std_scaler1.out[190,1] 7.3186158617089525e-01
pipe1.std_scaler1.out[191,0] 8.6896271046878351e+00
pipe1.std_scaler1.out[191,1] -1.1471220652262892e+00
pipe1.std_scaler1.out[192,0] 7.6508411966519354e+00
pipe1.std_scaler1.out[192,1] -3.9552860466741546e-01
